GLPSOL--GLPK LP/MIP Solver 5.0
Parameter(s) specified in the command line:
 --lp ../modeles/3_204.lp --log 3_204.log
Reading problem data from '../modeles/3_204.lp'...
625 rows, 1230 columns, 4293 non-zeros
612 integer variables, all of which are binary
1864 lines were read
GLPK Integer Optimizer 5.0
625 rows, 1230 columns, 4293 non-zeros
612 integer variables, all of which are binary
Preprocessing...
606 constraint coefficient(s) were reduced
625 rows, 1227 columns, 4290 non-zeros
612 integer variables, all of which are binary
Scaling...
 A: min|aij| =  3.845e-04  max|aij| =  4.000e+00  ratio =  1.040e+04
GM: min|aij| =  9.901e-02  max|aij| =  1.010e+01  ratio =  1.020e+02
EQ: min|aij| =  9.804e-03  max|aij| =  1.000e+00  ratio =  1.020e+02
2N: min|aij| =  7.812e-03  max|aij| =  1.755e+00  ratio =  2.246e+02
Constructing initial basis...
Size of triangular part is 625
Solving LP relaxation...
GLPK Simplex Optimizer 5.0
625 rows, 1227 columns, 4290 non-zeros
      0: obj =   6.000000000e+00 inf =   1.450e+01 (7)
     44: obj =   4.177762823e-01 inf =   0.000e+00 (0)
*   179: obj =  -1.731804586e+00 inf =   2.898e-16 (0)
OPTIMAL LP SOLUTION FOUND
Integer optimization begins...
Long-step dual simplex will be used
+   179: mip =     not found yet >=              -inf        (1; 0)
+   299: >>>>>  -1.731804586e+00 >=  -1.731804586e+00   0.0% (119; 0)
+   299: mip =  -1.731804586e+00 >=     tree is empty   0.0% (0; 237)
INTEGER OPTIMAL SOLUTION FOUND
Time used:   0.1 secs
Memory used: 1.8 Mb (1906495 bytes)
